<?xml version="1.0" encoding="UTF-8"?><osil xmlns="os.optimizationservices.org" xmlns:xsi="http://www.w3.org/2001/XMLSchema-instance" xsi:schemaLocation="os.optimizationservices.org http://www.optimizationservices.org/schemas/2.0/OSiL.xsd"><instanceHeader><name>synthes2</name></instanceHeader><instanceData><variables numberOfVariables="11"><var name="x1" ub="2"/><var name="x2" ub="2"/><var name="x3" ub="2"/><var name="x4"/><var name="x5"/><var name="x6" ub="3"/><var name="b7" type="B" ub="1"/><var name="b8" type="B" ub="1"/><var name="b9" type="B" ub="1"/><var name="b10" type="B" ub="1"/><var name="b11" type="B" ub="1"/></variables><objectives><obj maxOrMin="min" constant="1.4e2" name="defObj_objvar" numberOfObjCoef="7"><coef idx="2">-15</coef><coef idx="5">-20</coef><coef idx="6">5</coef><coef idx="7">8</coef><coef idx="8">6</coef><coef idx="9">10</coef><coef idx="10">6</coef></obj></objectives><constraints numberOfConstraints="14"><con name="e1" ub="0"/><con name="e2" ub="1"/><con name="e3" ub="1"/><con name="e4" ub="0"/><con name="e5" ub="0"/><con name="e6" ub="0"/><con name="e7" ub="0"/><con name="e8" ub="0"/><con name="e9" ub="0"/><con name="e10" ub="0"/><con name="e11" ub="0"/><con name="e12" ub="0"/><con name="e13" lb="1" ub="1"/><con name="e14" ub="1"/></constraints><linearConstraintCoefficients numberOfValues="33"><start><el mult="2">0</el><el>1</el><el>2</el><el mult="3" incr="3">4</el><el>15</el><el>20</el><el>22</el><el mult="5" incr="2">25</el></start><colIdx><el>6</el><el>7</el><el>2</el><el>8</el><el>3</el><el>4</el><el>9</el><el>2</el><el>5</el><el>10</el><el mult="4" incr="1">0</el><el>5</el><el mult="4" incr="1">0</el><el>5</el><el>2</el><el>5</el><el>2</el><el>3</el><el>5</el><el>3</el><el>4</el><el>3</el><el>4</el><el>6</el><el>7</el><el>9</el><el>10</el></colIdx><value><el mult="2">-10</el><el>1.25</el><el>-10</el><el mult="2">1</el><el>-10</el><el>-2</el><el>2</el><el>-10</el><el mult="2">-1</el><el>-2</el><el>1</el><el>2</el><el mult="2">-1</el><el>-.75</el><el>1</el><el>2</el><el>1</el><el>-1</el><el>2</el><el>-1</el><el>-2</el><el>-.5</el><el>1</el><el>-.2</el><el>-1</el><el mult="4">1</el></value></linearConstraintCoefficients><nonlinearExpressions numberOfNonlinearExpressions="4"><nl idx="-1"><sum><exp><variable idx="0"/></exp><variable idx="0" coef="-10"/><exp><variable idx="1" coef=".833333"/></exp><variable idx="1" coef="-15"/><product><ln><sum><number value="1"/><variable idx="3"/><variable idx="4"/></sum></ln><number value="-60"/></product><variable idx="3" coef="15"/><variable idx="4" coef="5"/></sum></nl><nl idx="0"><negate><ln><sum><number value="1"/><variable idx="3"/><variable idx="4"/></sum></ln></negate></nl><nl idx="1"><exp><variable idx="0"/></exp></nl><nl idx="2"><exp><variable idx="1" coef=".833333"/></exp></nl></nonlinearExpressions></instanceData></osil>